
  32    4
  10   10   10   10

   0   0   0   0   0   3 2 4 5 
   3   1   1   1   0   2 10 3 
   1   4   5   3   0   3 9 8 6 
   1   0   2   2   1   2 8 6 
   7   3   4   0   4   1 6 
   4   5   0   7   3   2 31 7 
   7   3   4   4   0   3 15 13 11 
  10   7   0   6   5   3 31 13 11 
   3   0   6   4   3   6 31 21 20 17 15 12 
  10   0   7   3   2   2 15 11 
   4   4   0   3   4   4 21 20 17 12 
   6   4   0   2   6   1 14 
   9   3   0   3   4   5 30 23 22 21 18 
   4   4   2   5   0   3 30 28 16 
  10   1   0   2   4   5 30 28 27 23 22 
   2   7   3   4   0   2 27 19 
   8   4   0   5   4   1 18 
   4   5   3   0   4   5 29 28 27 26 24 
   9   4   5   2   0   3 29 23 22 
   1   0   6   3   4   1 22 
  10   2   6   5   0   3 28 27 25 
   3   5   0   4   9   2 26 24 
   4   4   0   3   2   2 26 25 
   8   6   0   3   2   1 25 
   5   0   5   7   7   1 32
   6   4   0   4   2   1 32
   6   4   0   4   6   1 32
   3   0   5   7   4   1 32
   2   0   2   5   5   1 32
   3   4   2   0   6   1 32
   2   4   0   7   1   1 32
   0   0   0   0   0   0 
